\ENCODING=ISO-8859-1
\Problem name: phone.cor

Minimize
 OBJ: S12 + S13 + S14 + S15 + S16 + S23 + S24 + S25 + S26 + S34 + S35 + S36
      + S45 + S46 + S56
Subject To
 BUD:   X1 + X2 + X3 + X4 + X5 + X6 + X7 + X8 <= 3
 CAP1:  - X1 + F12R0 + F13R2 + F13R3 + F14R1 + F14R2 + F15R0 + F15R1 + F16R2
        + F16R3 + F23R0 + F23R1 + F24R1 + F24R2 + F25R2 + F25R3 + F26R0 + F26R1
        + F34R2 + F34R3 + F35R4 + F35R5 + F35R6 + F45R2 + F45R3 + F46R2 + F46R3
        + F56R4 + F56R5 + F56R6 <= 2
 CAP2:  - X2 + F12R3 + F12R4 + F13R0 + F14R3 + F15R4 + F15R5 + F16R0 + F23R0
        + F23R4 + F23R5 + F24R2 + F25R3 + F26R0 + F26R3 + F26R5 + F34R1 + F34R2
        + F34R3 + F35R2 + F35R3 + F35R5 + F35R6 + F45R3 + F46R1 + F46R2 + F46R3
        + F56R1 + F56R3 + F56R4 + F56R5 <= 2
 CAP3:  - X3 + F12R1 + F12R2 + F13R1 + F14R0 + F15R2 + F15R3 + F16R1 + F23R1
        + F23R4 + F23R5 + F24R1 + F25R2 + F26R1 + F26R3 + F26R5 + F34R1 + F35R2
        + F35R3 + F35R4 + F45R2 + F46R1 + F56R1 + F56R3 + F56R6 <= 4
 CAP4:  - X4 + F12R1 + F12R3 + F13R2 + F14R1 + F15R1 + F15R3 + F15R5 + F16R2
        + F23R2 + F23R5 + F24R0 + F25R1 + F26R2 + F26R3 + F34R2 + F35R1 + F35R3
        + F35R5 + F45R1 + F46R2 + F56R2 + F56R3 + F56R5 <= 4
 CAP5:  - X5 + F12R2 + F12R4 + F13R3 + F14R2 + F15R0 + F15R3 + F15R5 + F16R3
        + F23R3 + F23R4 + F24R3 + F25R0 + F26R4 + F26R5 + F34R3 + F35R1 + F35R3
        + F35R4 + F35R6 + F45R1 + F45R2 + F45R3 + F46R3 + F56R2 + F56R3 + F56R4
        + F56R6 <= 2
 CAP6:  - X6 + F12R3 + F12R4 + F13R1 + F13R2 + F13R3 + F14R3 + F15R4 + F15R5
        + F16R1 + F16R2 + F16R3 + F23R1 + F23R2 + F23R3 + F24R2 + F25R3 + F26R1
        + F26R2 + F26R4 + F34R0 + F35R0 + F35R1 + F35R4 + F45R3 + F46R0 + F56R0
        + F56R2 + F56R6 <= 4
 CAP7:  - X7 + F12R2 + F12R4 + F13R3 + F14R2 + F15R1 + F15R2 + F15R4 + F16R3
        + F23R3 + F23R4 + F24R3 + F25R1 + F25R2 + F25R3 + F26R4 + F26R5 + F34R3
        + F35R0 + F35R2 + F35R5 + F45R0 + F46R3 + F56R0 + F56R1 + F56R5 <= 3
 CAP8:  - X8 + F16R0 + F16R1 + F16R2 + F16R3 + F26R0 + F26R1 + F26R2 + F26R3
        + F26R4 + F26R5 + F36R0 + F46R0 + F46R1 + F46R2 + F46R3 + F56R0 + F56R1
        + F56R2 + F56R3 + F56R4 + F56R5 + F56R6 <= 1
 DEM12: F12R0 + F12R1 + F12R2 + F12R3 + F12R4 + S12  = 9.99
 DEM13: F13R0 + F13R1 + F13R2 + F13R3 + S13  = 9.99
 DEM14: F14R0 + F14R1 + F14R2 + F14R3 + S14  = 9.99
 DEM15: F15R0 + F15R1 + F15R2 + F15R3 + F15R4 + F15R5 + S15  = 9.99
 DEM16: F16R0 + F16R1 + F16R2 + F16R3 + S16  = 9.99
 DEM23: F23R0 + F23R1 + F23R2 + F23R3 + F23R4 + F23R5 + S23  = 9.99
 DEM24: F24R0 + F24R1 + F24R2 + F24R3 + S24  = 9.99
 DEM25: F25R0 + F25R1 + F25R2 + F25R3 + S25  = 9.99
 DEM26: F26R0 + F26R1 + F26R2 + F26R3 + F26R4 + F26R5 + S26  = 9.99
 DEM34: F34R0 + F34R1 + F34R2 + F34R3 + S34  = 9.99
 DEM35: F35R0 + F35R1 + F35R2 + F35R3 + F35R4 + F35R5 + F35R6 + S35  = 9.99
 DEM36: F36R0 + S36  = 9.99
 DEM45: F45R0 + F45R1 + F45R2 + F45R3 + S45  = 9.99
 DEM46: F46R0 + F46R1 + F46R2 + F46R3 + S46  = 9.99
 DEM56: F56R0 + F56R1 + F56R2 + F56R3 + F56R4 + F56R5 + F56R6 + S56  = 9.99
End
